52
2 49 75 
2 117 26 
2 71 85 
3 24 21 118 
2 43 5 
2 103 107 
3 55 32 2 
2 74 27 
2 25 38 
2 59 115 
2 51 22 
2 20 116 
3 41 102 9 
2 112 88 
2 93 89 
2 119 90 
2 95 40 
2 34 68 
2 46 78 
2 61 106 
2 47 36 
2 77 29 
2 62 84 
3 105 28 7 
2 16 10 
2 54 81 
3 80 63 1 
2 45 100 
2 73 60 
2 11 58 
3 37 91 18 
2 79 70 
2 15 94 
3 76 30 98 
2 99 114 
2 64 23 
2 53 33 
2 4 14 
3 101 97 110 
2 6 12 
2 65 111 
3 66 67 39 
2 108 42 
2 46 78 
3 8 13 41 
2 104 56 
3 50 3 109 
2 92 87 
2 86 113 
3 69 96 19 
2 31 82 
4 17 83 44 48 
